/*********************************************
 * OPL 12.10.0.0 Data
 * Author: tt_sina
 * Creation Date: Nov 4, 2021 at 1:35:48 PM
 *********************************************/
n=5;
d=[[0 222 310 401 385]
   [230 0 185 243 390]
   [280 150 0 420 270]
   [415 260 330 0 170]
   [370 400 250 210 0]];